results/filo/x-long/X-n106-k14.vrp_seed-6.vrp.sol
Route #1: 52 92 102 24 90 26 62
Route #2: 22 33
Route #3: 5 44 76 60 51 100 45 96
Route #4: 1 104 12 9 84 75 7
Route #5: 86 18 41 10 16 20 56
Route #6: 66 46 71 79 37 27 19 78
Route #7: 87 74 11 34 72 29 82
Route #8: 15 43 97 93 28 101 103 53
Route #9: 68 95 38 65 80 61 47 25
Route #10: 57 63 40 31 17 2 48 58 49
Route #11: 35 73 32 3 23 42 30 89 59
Route #12: 13 54 85 77 83 67 21 99
Route #13: 39 50 81 6 70 4 98 55
Route #14: 14 88 8 36 91 69 105 64 94
Cost 26383.000000